nNurses = 69;
nHours = 30;
minHours = 4;
maxHours = 11;
maxConsec = 7;
maxPresence = 22;
demand = [23, 24, 20, 15, 16, 11, 14, 13, 17, 13, 14, 13, 9, 13, 18, 14, 11, 10, 15, 18, 23, 25, 24, 21, 21, 22, 23, 25, 22, 18];
